# cost of carbon emissions ($/tonneCO2)
param carbon_cost;
# Set this to more than one value if you want to run the carbon curve scripty thing
set CARBON_COSTS := 0 60;

param: 
RESULT_FILES:                        result_file_path_templates :=
generator_and_storage_dispatch				'generator_and_storage_dispatch_%d.txt'
system_load									'system_load_%d.txt'
transmission_dispatch						'transmission_dispatch_%d.txt'
generation_capacity							'gen_cap_%d.txt'
transmission_capacity						'trans_cap_%d.txt'
existing_trans_cost_and_rps_reduced_cost	'existing_trans_cost_and_rps_reduced_cost_%d.txt'
local_td_capacity							'local_td_cap_%d.txt';
